NUM_TRAINS = 8;
NUM_ACTIONS = 42;
NUM_DRIVERS = 2;

D = [3,3,3,3,3,3,3,3,3,3,3,3,3,3,3,3,3,3,3,3,3,3,3,3,3,3,3,3,3,3,3,3,3,3,3,3,3,3,3,3,3,3];
TA = [1,1,1,1,2,2,2,2,3,3,3,3,4,4,4,4,5,5,5,5,6,6,6,6,6,6,6,6,6,7,7,7,7,7,7,7,7,7,8,8,8,8];

NUM_PRECEDENCE_CONSTRAINTS = 43;
preceding = [1,2,3,5,6,7,9,10,11,12,13,14,15,17,18,19,21,22,23,23,24,25,25,26,26,27,27,28,30,31,32,32,33,34,34,35,35,36,36,37,39,40,41];
anteceding = [2,3,4,6,7,8,10,11,12,27,14,15,16,18,19,20,22,23,26,24,25,26,33,27,32,28,31,29,31,32,33,35,34,35,42,36,41,37,40,38,40,41,42];

NUM_TURN_CONSTRAINTS = 2;
before_turn = [24,33];
after_turn = [25,34];

NUM_START_ORDER_CONSTRAINTS = 11;
start_early = [1,4,5,8,9,13,16,17,21,29,30];
start_later = [5,24,9,12,13,17,20,21,30,38,39];

NUM_OVERLAP_CONSTRAINS = 65;
overlap_left = [2,2,3,3,3,3,4,4,6,6,7,7,7,7,8,8,10,10,11,11,11,11,12,12,14,14,15,15,15,15,16,16,18,18,19,19,19,19,20,20,22,22,23,23,23,23,24,25,25,25,25,26,26,26,26,27,27,31,32,32,34,34,35,35,36];
overlap_right = [26,35,26,25,34,35,25,34,26,35,26,27,36,35,27,36,26,35,26,27,36,35,36,27,26,35,26,25,34,35,25,34,26,35,26,25,34,35,25,34,26,35,26,25,34,35,34,33,32,42,41,31,32,40,41,31,40,35,34,35,42,41,40,41,40];

